(declare-fun e () String)
(declare-fun c () String)
(declare-fun b () String)
(declare-fun d () String)
(declare-fun f () String)
(declare-fun a () String)
(assert (= (str.++ d f a) "bghc"))
(assert (= (str.++ "f" a "eh") "g"))
(assert (= (str.++ c "h" b "h") (str.++ "h" c "ab" f e)))

(check-sat)
